tsp_instances/TSP20/instance111.tsp
NODE_COORD_SECTION
0 161 124
1 147 182
2 178 42
3 31 107
4 103 181
5 130 28
6 105 32
7 77 146
8 13 3
9 193 32
10 8 69
11 3 51
12 72 82
13 55 50
14 128 127
15 97 48
16 96 10
17 14 14
18 99 23
19 51 49
