tsp_instances/TSP20/instance111.opt.tour
TOUR_SECTION
1
10
3
6
17
19
7
16
13
14
20
9
18
12
11
4
8
5
2
15
-1